opti defect full nosymmetry nodsymmetry regi_before bulk_noopt comp prop freq pot
title
single dopant calculation
end
# switch rfo gnorm 0.3
cell
5.395430606 5.395430606 5.395430606  90.00000000  90.00000000 90.00000000

frac
Ce core 0.00000000   0.00000000   0.00000000
Ce shel 0.00000000   0.00000000   0.00000000 
O  core 0.250000   0.250000   0.250000
O  shel 0.250000   0.250000   0.250000

space
F M 3 M

centre    cart 0.0 0.0 0.0
size      15.0 30.0
vacancy   cart 1.34885765 1.34885765 1.34885765
vacancy   cart -1.34885765 1.34885765 1.34885765
impurity Gd cart 0.0000000 0.0000000 0.0000000
impurity Gd cart 0.0000000 2.6977153 2.6977153
impurity Gd cart 2.6977153 0.0000000 2.6977153
impurity Gd cart 2.6977153 2.6977153 0.0000000
impurity Gd cart 0.0000000 -2.6977153 2.6977153
impurity Gd cart 0.0000000 2.6977153 -2.6977153
impurity Gd cart -2.6977153 0.0000000 2.6977153
impurity Gd cart 2.6977153 0.0000000 -2.6977153
impurity Gd cart -2.6977153 2.6977153 0.0000000
impurity Gd cart 2.6977153 -2.6977153 0.0000000
impurity Gd cart 0.0000000 0.0000000 5.3954306
impurity Gd cart 0.0000000 5.3954306 0.0000000
impurity Gd cart 5.3954306 0.0000000 0.0000000
impurity Gd cart 2.6977153 2.6977153 5.3954306
impurity Gd cart 5.3954306 2.6977153 2.6977153
impurity Gd cart 2.6977153 5.3954306 2.6977153
impurity Gd cart -2.6977153 0.0000000 -2.6977153
impurity Gd cart -2.6977153 -2.6977153 0.0000000
impurity Gd cart -5.3954306 0.0000000 0.0000000
impurity Gd cart -2.6977153 2.6977153 5.3954306
impurity Gd cart -2.6977153 5.3954306 2.6977153
impurity Gd cart -5.3954306 2.6977153 2.6977153

species
Ce    core   -9.850000 
Ce    shel   13.850000 
La    core   -9.21790  
La    shel   12.21790  
O     core    0.936345 
O     shel   -2.936345 
Nd    core    3.0
Gd    core    3.0
buck
O    shel O    shel  22764.3000   0.149000  20.983768      0.0 25.0     
O    shel Ce   shel  1139.010286  0.417578  25.082349      0.0  4.8     
O    shel La   shel  2248.3906    0.341000  34.477930      0.0 25.0      
Ce   shel Ce   shel  1.0          0.10      30.481293      0.0 25.0    
La   shel La   shel  1.0          0.10      56.693757      0.0 25.0    
La   shel Ce   shel  1.0          0.10      39.621401      0.0 25.0
Nd   core O    shel  1379.9       0.3601    0.0            0.0 25.0
Gd   core O    shel  1336.8       0.3551    0.0            0.0 25.0
lennard 12  6     
O    shel O    shel  10.0      0.0      0.0 25.0
O    shel Ce   shel  10.0      0.0      0.0  4.8
O    shel La   shel  10.0      0.0      0.0 25.0
Ce   shel Ce   shel  10.0      0.0      0.0 25.0
La   shel La   shel  10.0      0.0      0.0 25.0
La   shel Ce   shel  10.0      0.0      0.0 25.0
morse     
O    shel Ce   shel  -1.15172262 0.40  4.53327  0.0000  0.000   4.80
polynomial     
 1
O    shel Ce   shel  -1.077769   0.00  0.000  0.000   4.80
polynomial
 5
O    shel Ce   shel -1952.35663530 1796.71132884 -658.98890407 &
120.42275309 -10.96459980 0.39794942  0.000  4.8 5.5
spring
Ce    1071.1845     100000.0
La    799.14006     119228.97  
O     53.022513     50000.0 
#######   OPTIONS
stepmx 0.3
accuracy   7
xtol opt   7
gtol opt   7
ftol opt   7
maxcyc opt  1000
output cif a.cif
output freq text freq.txt 12
dump every 100 gulp.res
# switch rfo 0.001
output xyz current.xyz
